(set-info :smt-lib-version 2.7)
(set-logic QF_SNIA)
(set-info :source  | 
Generated by: Johannes Bauer
Generated on: 2026-06-21
Generator: mgm A12 Test Data Generator
Application: ELSTER
Target solver: Z3, CVC5
Script is based on the ELSTER form: capital gains tax registration (A / KapEStInvStG)
Characteristic of the form: easy.
In this script, all terms of the form (* x1 x2 x3 ...) are in the form (* x1 c2 c3 ...),
all terms of the form (div x y) are in the form (div x c) and the symbol mod is exclusively used in the form (mod x c),
where x, y, and x1, x2, x3 ... are free constants and c, c2, c3 ... are terms in the form n or (-n) for some numeral n.
The script starts with the base constraints, which define a valid data set for the corresponding form. After the first (push 1), control constraints follow.
The goal of the control constraints in this script is to fill up a data set with values, after the characteristics of the high test coverage were placed.
number variables: 167, number constraints: 185
"https://www.elster.de/eportal/start?locale=en_US"
"https://www.mgm-tp.com/q12-tdg.html"
"https://a12.ai/public-sector"
|)
(set-info :license "https://creativecommons.org/licenses/by/4.0/")
(set-info :category "industrial")
(set-info :major-phase |variable declarations|)
(declare-fun S1-S () String)
(declare-fun S2-S () String)
(declare-fun B3-F () Bool)
(declare-fun S3-S () String)
(declare-fun B4-F () Bool)
(declare-fun B5-F () Bool)
(declare-fun B6-F () Bool)
(declare-fun B7-F () Bool)
(declare-fun B8-F () Bool)
(declare-fun I8-y () Int)
(declare-fun B9-F () Bool)
(declare-fun S9-S () String)
(declare-fun B10-F () Bool)
(declare-fun S11-S () String)
(declare-fun I12-y () Int)
(declare-fun I12-m () Int)
(declare-fun I12-d () Int)
(declare-fun I13-y () Int)
(declare-fun I13-m () Int)
(declare-fun I13-d () Int)
(declare-fun I14 () Int)
(declare-fun B15-F () Bool)
(declare-fun B16-F () Bool)
(declare-fun B17-F () Bool)
(declare-fun I17 () Int)
(declare-fun B18-F () Bool)
(declare-fun I18 () Int)
(declare-fun B19-F () Bool)
(declare-fun I19 () Int)
(declare-fun I20 () Int)
(declare-fun I21 () Int)
(declare-fun I22-s-y () Int)
(declare-fun I22-s-m () Int)
(declare-fun I22-s-d () Int)
(declare-fun I22-e-y () Int)
(declare-fun I22-e-m () Int)
(declare-fun I22-e-d () Int)
(declare-fun I23-y () Int)
(declare-fun I23-m () Int)
(declare-fun I23-d () Int)
(declare-fun I24-y () Int)
(declare-fun I24-m () Int)
(declare-fun I24-d () Int)
(declare-fun B25-F () Bool)
(declare-fun B26-F () Bool)
(declare-fun B27-F () Bool)
(declare-fun I27 () Int)
(declare-fun B28-F () Bool)
(declare-fun I28 () Int)
(declare-fun B29-F () Bool)
(declare-fun I29 () Int)
(declare-fun I30 () Int)
(declare-fun B31-F () Bool)
(declare-fun B32-F () Bool)
(declare-fun B33-F () Bool)
(declare-fun I33 () Int)
(declare-fun B34-F () Bool)
(declare-fun I34 () Int)
(declare-fun B35-F () Bool)
(declare-fun I36-s-y () Int)
(declare-fun I36-s-m () Int)
(declare-fun I36-s-d () Int)
(declare-fun I36-e-y () Int)
(declare-fun I36-e-m () Int)
(declare-fun I36-e-d () Int)
(declare-fun I37-y () Int)
(declare-fun I37-m () Int)
(declare-fun I37-d () Int)
(declare-fun I38-y () Int)
(declare-fun I38-m () Int)
(declare-fun I38-d () Int)
(declare-fun I39 () Int)
(declare-fun I40 () Int)
(declare-fun I41 () Int)
(declare-fun I42 () Int)
(declare-fun I43 () Int)
(declare-fun S44-S () String)
(declare-fun I45-y () Int)
(declare-fun I45-m () Int)
(declare-fun I45-d () Int)
(declare-fun B46-F () Bool)
(declare-fun I46-y () Int)
(declare-fun I46-m () Int)
(declare-fun I46-d () Int)
(declare-fun B47-F () Bool)
(declare-fun I47-y () Int)
(declare-fun I47-m () Int)
(declare-fun I47-d () Int)
(declare-fun B48-F () Bool)
(declare-fun B49-F () Bool)
(declare-fun B50-F () Bool)
(declare-fun I50 () Int)
(declare-fun B51-F () Bool)
(declare-fun I51 () Int)
(declare-fun B52-F () Bool)
(declare-fun I52 () Int)
(declare-fun B53-F () Bool)
(declare-fun B54-F () Bool)
(declare-fun B55-F () Bool)
(declare-fun I55 () Int)
(declare-fun B56-F () Bool)
(declare-fun B57-F () Bool)
(declare-fun I57 () Int)
(declare-fun I58 () Int)
(declare-fun I59 () Int)
(declare-fun I60 () Int)
(declare-fun I61-y () Int)
(declare-fun I61-m () Int)
(declare-fun I61-d () Int)
(declare-fun I62 () Int)
(declare-fun I63 () Int)
(declare-fun I64 () Int)
(declare-fun I65 () Int)
(declare-fun I66 () Int)
(declare-fun I67 () Int)
(declare-fun I68 () Int)
(declare-fun I69 () Int)
(declare-fun B70-F () Bool)
(declare-fun B71-F () Bool)
(declare-fun I71 () Int)
(declare-fun B72-F () Bool)
(declare-fun I72 () Int)
(declare-fun B73-F () Bool)
(declare-fun I73 () Int)
(declare-fun I74 () Int)
(declare-fun I75 () Int)
(declare-fun B76-F () Bool)
(declare-fun I76-y () Int)
(declare-fun I76-m () Int)
(declare-fun I76-d () Int)
(declare-fun B77-F () Bool)
(declare-fun B78-F () Bool)
(declare-fun I78 () Int)
(declare-fun B79-F () Bool)
(declare-fun I79 () Int)
(declare-fun B80-F () Bool)
(declare-fun I80 () Int)
(declare-fun B81-F () Bool)
(declare-fun I81 () Int)
(declare-fun B82-F () Bool)
(declare-fun I82 () Int)
(declare-fun B83-F () Bool)
(declare-fun I83 () Int)
(declare-fun B84-F () Bool)
(declare-fun I84 () Int)
(declare-fun B85-F () Bool)
(declare-fun I85 () Int)
(declare-fun B86-F () Bool)
(declare-fun B87-F () Bool)
(declare-fun I87 () Int)
(declare-fun B88-F () Bool)
(declare-fun I88 () Int)
(declare-fun B89-F () Bool)
(declare-fun I89 () Int)
(declare-fun B90-F () Bool)
(declare-fun I90 () Int)
(declare-fun B91-F () Bool)
(declare-fun B92-F () Bool)
(declare-fun I92 () Int)
(declare-fun B93-F () Bool)
(declare-fun I94 () Int)
(declare-fun B95-F () Bool)
(declare-fun B96-F () Bool)
(declare-fun B97-F () Bool)
(declare-fun B98-F () Bool)
(declare-fun B99-F () Bool)
(declare-fun B100-F () Bool)
(set-info :major-phase |base constraints|)
(set-info :base-constraint-type |constraints defining hierarchy (group is filled, if a child is filled)|)
(assert (not (or B76-F B77-F)))
(assert (= B77-F (or B78-F B79-F)))
(assert (= B95-F (or B96-F B97-F)))
(assert B7-F)
(assert (= B15-F (or B16-F B17-F B18-F B19-F)))
(assert (= B48-F (or B49-F B50-F B51-F B52-F)))
(assert (= B53-F (or B54-F B55-F B56-F B57-F)))
(assert (= B70-F (or B71-F B72-F B73-F)))
(assert (= B25-F (or B26-F B27-F B28-F B29-F)))
(assert (= B31-F (or B32-F B33-F B34-F B35-F)))
(assert (or B80-F B81-F B82-F B83-F B84-F B85-F B86-F B87-F B88-F B89-F B90-F B91-F B92-F))
(set-info :base-constraint-type |domainconstraints number-fields|)
(assert (ite B78-F (and (<= I78 999999999999) (>= I78 0)) (= I78 0)))
(assert (ite B79-F (and (<= I79 999999999999) (>= I79 0)) (= I79 0)))
(assert (and (<= I74 999999999999) (>= I74 (- 999999999999))))
(assert (and (<= I75 99999999999999) (>= I75 (- 99999999999999))))
(assert (and (<= I14 99999999999999) (>= I14 (- 99999999999999))))
(assert (ite B17-F (and (<= I17 999999999999) (>= I17 (- 999999999999))) (= I17 0)))
(assert (ite B18-F (and (<= I18 999999999999) (>= I18 (- 999999999999))) (= I18 0)))
(assert (ite B19-F (and (<= I19 99999999999999) (>= I19 (- 99999999999999))) (= I19 0)))
(assert (and (<= I20 999999999999) (>= I20 (- 999999999999))))
(assert (and (<= I21 99999999999999) (>= I21 (- 99999999999999))))
(assert (ite B50-F (and (<= I50 999999999999) (>= I50 (- 999999999999))) (= I50 0)))
(assert (ite B51-F (and (<= I51 999999999999) (>= I51 (- 999999999999))) (= I51 0)))
(assert (ite B52-F (and (<= I52 99999999999999) (>= I52 (- 99999999999999))) (= I52 0)))
(assert (ite B55-F (and (<= I55 999999999999) (>= I55 (- 999999999999))) (= I55 0)))
(assert (ite B56-F true false))
(assert (ite B57-F (and (<= I57 99999999999999) (>= I57 (- 99999999999999))) (= I57 0)))
(assert (and (<= I58 999999999999) (>= I58 (- 999999999999))))
(assert (and (<= I59 999999999999) (>= I59 (- 999999999999))))
(assert (and (<= I60 99999999999999) (>= I60 (- 99999999999999))))
(assert (and (<= I62 999999999999) (>= I62 0)))
(assert (and (<= I63 999999999999) (>= I63 0)))
(assert (and (<= I64 999999999999) (>= I64 0)))
(assert (and (<= I65 999999999999) (>= I65 0)))
(assert (and (<= I66 99999999999999) (>= I66 0)))
(assert (and (<= I67 999999999999) (>= I67 0)))
(assert (and (<= I68 999999999999) (>= I68 0)))
(assert (and (<= I69 99999999999999) (>= I69 0)))
(assert (ite B71-F (and (<= I71 999999999999) (>= I71 (- 999999999999))) (= I71 0)))
(assert (ite B72-F (and (<= I72 999999999999) (>= I72 (- 999999999999))) (= I72 0)))
(assert (ite B73-F (and (<= I73 99999999999999) (>= I73 (- 99999999999999))) (= I73 0)))
(assert (ite B27-F (and (<= I27 999999999999) (>= I27 (- 999999999999))) (= I27 0)))
(assert (ite B28-F (and (<= I28 999999999999) (>= I28 (- 999999999999))) (= I28 0)))
(assert (ite B29-F (and (<= I29 99999999999999) (>= I29 (- 99999999999999))) (= I29 0)))
(assert (and (<= I30 999999999999) (>= I30 (- 999999999999))))
(assert (ite B33-F (and (<= I33 999999999999) (>= I33 (- 999999999999))) (= I33 0)))
(assert (ite B34-F (and (<= I34 999999999999) (>= I34 (- 999999999999))) (= I34 0)))
(assert (ite B35-F true false))
(assert (and (<= I39 999999999999) (>= I39 (- 999999999999))))
(assert (and (<= I40 999999999999) (>= I40 (- 999999999999))))
(assert (and (<= I41 99999999999999) (>= I41 (- 99999999999999))))
(assert (and (<= I42 999999999999) (>= I42 (- 999999999999))))
(assert (and (<= I43 99999999999999) (>= I43 (- 99999999999999))))
(assert (ite B82-F (and (<= I82 99999999999999) (>= I82 (- 9999999999999))) (= I82 0)))
(assert (ite B81-F (and (<= I81 99999999999999) (>= I81 (- 9999999999999))) (= I81 0)))
(assert (ite B80-F (and (<= I80 99999999999999) (>= I80 (- 9999999999999))) (= I80 0)))
(assert (ite B83-F (and (<= I83 99999999999999) (>= I83 (- 9999999999999))) (= I83 0)))
(assert (ite B84-F (and (<= I84 99999999999999) (>= I84 (- 9999999999999))) (= I84 0)))
(assert (ite B85-F (and (<= I85 99999999999999) (>= I85 (- 9999999999999))) (= I85 0)))
(assert (ite B86-F true false))
(assert (ite B87-F (and (<= I87 99999999999999) (>= I87 (- 9999999999999))) (= I87 0)))
(assert (ite B91-F true false))
(assert (ite B88-F (and (<= I88 99999999999999) (>= I88 (- 9999999999999))) (= I88 0)))
(assert (ite B89-F (and (<= I89 99999999999999) (>= I89 (- 9999999999999))) (= I89 0)))
(assert (ite B90-F (and (<= I90 99999999999999) (>= I90 (- 9999999999999))) (= I90 0)))
(assert (ite B92-F (and (<= I92 99999999999999) (>= I92 (- 9999999999999))) (= I92 0)))
(assert (ite B93-F (and (<= I94 99999999999999) (>= I94 (- 9999999999999))) (= I94 0)))
(set-info :base-constraint-type |domainconstraints date-fields|)
(assert (and (ite B76-F (and (> I76-y 1900) (< I76-y 2100)) (= I76-y 0)) (ite B76-F (and (> I76-m 0) (<= I76-m 12)) (= I76-m 0)) (ite B76-F (and (> I76-d 0) (<= I76-d (ite (or (= I76-m 0) (= I76-m 1) (= I76-m 3) (= I76-m 5) (= I76-m 7) (= I76-m 8) (= I76-m 10) (= I76-m 12)) 31 (ite (or (= I76-m 4) (= I76-m 6) (= I76-m 9) (= I76-m 11)) 30 (ite (= (mod I76-y 4) 0) 29 28))))) (= I76-d 0))))
(assert (ite B8-F (and (> I8-y 1900) (< I8-y 2100)) (= I8-y 0)))
(assert (and (> I13-y 1900) (< I13-y 2100) (> I13-m 0) (<= I13-m 12) (> I13-d 0) (<= I13-d (ite (or (= I13-m 0) (= I13-m 1) (= I13-m 3) (= I13-m 5) (= I13-m 7) (= I13-m 8) (= I13-m 10) (= I13-m 12)) 31 (ite (or (= I13-m 4) (= I13-m 6) (= I13-m 9) (= I13-m 11)) 30 (ite (= (mod I13-y 4) 0) 29 28))))))
(assert (and (> I12-y 1900) (< I12-y 2100) (> I12-m 0) (<= I12-m 12) (> I12-d 0) (<= I12-d (ite (or (= I12-m 0) (= I12-m 1) (= I12-m 3) (= I12-m 5) (= I12-m 7) (= I12-m 8) (= I12-m 10) (= I12-m 12)) 31 (ite (or (= I12-m 4) (= I12-m 6) (= I12-m 9) (= I12-m 11)) 30 (ite (= (mod I12-y 4) 0) 29 28))))))
(assert (and (ite B46-F (and (> I46-y 1900) (< I46-y 2100)) (= I46-y 0)) (ite B46-F (and (> I46-m 0) (<= I46-m 12)) (= I46-m 0)) (ite B46-F (and (> I46-d 0) (<= I46-d (ite (or (= I46-m 0) (= I46-m 1) (= I46-m 3) (= I46-m 5) (= I46-m 7) (= I46-m 8) (= I46-m 10) (= I46-m 12)) 31 (ite (or (= I46-m 4) (= I46-m 6) (= I46-m 9) (= I46-m 11)) 30 (ite (= (mod I46-y 4) 0) 29 28))))) (= I46-d 0))))
(assert (and (> I45-y 1900) (< I45-y 2100) (> I45-m 0) (<= I45-m 12) (> I45-d 0) (<= I45-d (ite (or (= I45-m 0) (= I45-m 1) (= I45-m 3) (= I45-m 5) (= I45-m 7) (= I45-m 8) (= I45-m 10) (= I45-m 12)) 31 (ite (or (= I45-m 4) (= I45-m 6) (= I45-m 9) (= I45-m 11)) 30 (ite (= (mod I45-y 4) 0) 29 28))))))
(assert (and (ite B47-F (and (> I47-y 1900) (< I47-y 2100)) (= I47-y 0)) (ite B47-F (and (> I47-m 0) (<= I47-m 12)) (= I47-m 0)) (ite B47-F (and (> I47-d 0) (<= I47-d (ite (or (= I47-m 0) (= I47-m 1) (= I47-m 3) (= I47-m 5) (= I47-m 7) (= I47-m 8) (= I47-m 10) (= I47-m 12)) 31 (ite (or (= I47-m 4) (= I47-m 6) (= I47-m 9) (= I47-m 11)) 30 (ite (= (mod I47-y 4) 0) 29 28))))) (= I47-d 0))))
(assert (and (> I61-y 1900) (< I61-y 2100) (> I61-m 0) (<= I61-m 12) (> I61-d 0) (<= I61-d (ite (or (= I61-m 0) (= I61-m 1) (= I61-m 3) (= I61-m 5) (= I61-m 7) (= I61-m 8) (= I61-m 10) (= I61-m 12)) 31 (ite (or (= I61-m 4) (= I61-m 6) (= I61-m 9) (= I61-m 11)) 30 (ite (= (mod I61-y 4) 0) 29 28))))))
(assert (and (> I24-y 1900) (< I24-y 2100) (> I24-m 0) (<= I24-m 12) (> I24-d 0) (<= I24-d (ite (or (= I24-m 0) (= I24-m 1) (= I24-m 3) (= I24-m 5) (= I24-m 7) (= I24-m 8) (= I24-m 10) (= I24-m 12)) 31 (ite (or (= I24-m 4) (= I24-m 6) (= I24-m 9) (= I24-m 11)) 30 (ite (= (mod I24-y 4) 0) 29 28))))))
(assert (and (> I23-y 1900) (< I23-y 2100) (> I23-m 0) (<= I23-m 12) (> I23-d 0) (<= I23-d (ite (or (= I23-m 0) (= I23-m 1) (= I23-m 3) (= I23-m 5) (= I23-m 7) (= I23-m 8) (= I23-m 10) (= I23-m 12)) 31 (ite (or (= I23-m 4) (= I23-m 6) (= I23-m 9) (= I23-m 11)) 30 (ite (= (mod I23-y 4) 0) 29 28))))))
(assert (or (< I22-s-y I22-e-y) (and (= I22-s-y I22-e-y) (< I22-s-m I22-e-m)) (and (= I22-s-y I22-e-y) (= I22-s-m I22-e-m) (<= I22-s-d I22-e-d))))
(assert (and (>= I22-e-d 1) (<= I22-e-d (ite (or (= I22-e-m 0) (= I22-e-m 1) (= I22-e-m 3) (= I22-e-m 5) (= I22-e-m 7) (= I22-e-m 8) (= I22-e-m 10) (= I22-e-m 12)) 31 (ite (or (= I22-e-m 4) (= I22-e-m 6) (= I22-e-m 9) (= I22-e-m 11)) 30 (ite (= (mod I22-e-y 4) 0) 29 28))))))
(assert (and (>= I22-e-m 1) (<= I22-e-m 12)))
(assert (and (>= I22-e-y 1901) (<= I22-e-y 2099)))
(assert (and (>= I22-s-d 1) (<= I22-s-d (ite (or (= I22-s-m 0) (= I22-s-m 1) (= I22-s-m 3) (= I22-s-m 5) (= I22-s-m 7) (= I22-s-m 8) (= I22-s-m 10) (= I22-s-m 12)) 31 (ite (or (= I22-s-m 4) (= I22-s-m 6) (= I22-s-m 9) (= I22-s-m 11)) 30 (ite (= (mod I22-s-y 4) 0) 29 28))))))
(assert (and (>= I22-s-m 1) (<= I22-s-m 12)))
(assert (and (>= I22-s-y 1901) (<= I22-s-y 2099)))
(assert (and (> I38-y 1900) (< I38-y 2100) (> I38-m 0) (<= I38-m 12) (> I38-d 0) (<= I38-d (ite (or (= I38-m 0) (= I38-m 1) (= I38-m 3) (= I38-m 5) (= I38-m 7) (= I38-m 8) (= I38-m 10) (= I38-m 12)) 31 (ite (or (= I38-m 4) (= I38-m 6) (= I38-m 9) (= I38-m 11)) 30 (ite (= (mod I38-y 4) 0) 29 28))))))
(assert (and (> I37-y 1900) (< I37-y 2100) (> I37-m 0) (<= I37-m 12) (> I37-d 0) (<= I37-d (ite (or (= I37-m 0) (= I37-m 1) (= I37-m 3) (= I37-m 5) (= I37-m 7) (= I37-m 8) (= I37-m 10) (= I37-m 12)) 31 (ite (or (= I37-m 4) (= I37-m 6) (= I37-m 9) (= I37-m 11)) 30 (ite (= (mod I37-y 4) 0) 29 28))))))
(assert (or (< I36-s-y I36-e-y) (and (= I36-s-y I36-e-y) (< I36-s-m I36-e-m)) (and (= I36-s-y I36-e-y) (= I36-s-m I36-e-m) (<= I36-s-d I36-e-d))))
(assert (and (>= I36-e-d 1) (<= I36-e-d (ite (or (= I36-e-m 0) (= I36-e-m 1) (= I36-e-m 3) (= I36-e-m 5) (= I36-e-m 7) (= I36-e-m 8) (= I36-e-m 10) (= I36-e-m 12)) 31 (ite (or (= I36-e-m 4) (= I36-e-m 6) (= I36-e-m 9) (= I36-e-m 11)) 30 (ite (= (mod I36-e-y 4) 0) 29 28))))))
(assert (and (>= I36-e-m 1) (<= I36-e-m 12)))
(assert (and (>= I36-e-y 1901) (<= I36-e-y 2099)))
(assert (and (>= I36-s-d 1) (<= I36-s-d (ite (or (= I36-s-m 0) (= I36-s-m 1) (= I36-s-m 3) (= I36-s-m 5) (= I36-s-m 7) (= I36-s-m 8) (= I36-s-m 10) (= I36-s-m 12)) 31 (ite (or (= I36-s-m 4) (= I36-s-m 6) (= I36-s-m 9) (= I36-s-m 11)) 30 (ite (= (mod I36-s-y 4) 0) 29 28))))))
(assert (and (>= I36-s-m 1) (<= I36-s-m 12)))
(assert (and (>= I36-s-y 1901) (<= I36-s-y 2099)))
(set-info :base-constraint-type |constraints for date-strategy|)
(assert (and (> (str.to_int S11-S) 1900) (< (str.to_int S11-S) 2100)))
(assert (and (> (str.to_int S11-S) 1900) (< (str.to_int S11-S) 2100)))
(set-info :base-constraint-type |domainconstraints string fields|)
(assert (and (str.in_re S11-S (re.+ (re.range "0" "9"))) (>= (str.len S11-S) 4) (<= (str.len S11-S) 4)))
(assert (and (str.in_re S44-S (re.+ (re.range "0" "9"))) (>= (str.len S44-S) 4) (<= (str.len S44-S) 4)))
(set-info :base-constraint-type |domainconstraints index-based string fields|)
(assert (or (= S2-S "0") (= S2-S "1")))
(assert (ite B9-F (or (= S9-S "11") (= S9-S "01") (= S9-S "12") (= S9-S "02") (= S9-S "03") (= S9-S "04") (= S9-S "05") (= S9-S "06") (= S9-S "07") (= S9-S "08") (= S9-S "09") (= S9-S "10")) (= S9-S "")))
(assert (or (= S1-S "2216060427666") (= S1-S "2815094023008") (= S1-S "1060048649864") (= S1-S "2348008413417") (= S1-S "2702024686052") (= S1-S "3207051220872") (= S1-S "1123012960769") (= S1-S "5103096558745") (= S1-S "2632041436639") (= S1-S "3103071321727") (= S1-S "3062087900803") (= S1-S "9170050074951") (= S1-S "4084068125545") (= S1-S "2460083378687") (= S1-S "2189063488000")))
(assert (ite B3-F (or (= S3-S "2216060427666") (= S3-S "2815094023008") (= S3-S "1060048649864") (= S3-S "2348008413417") (= S3-S "2702024686052") (= S3-S "3207051220872") (= S3-S "1123012960769") (= S3-S "5103096558745") (= S3-S "2632041436639") (= S3-S "3103071321727") (= S3-S "3062087900803") (= S3-S "9170050074951") (= S3-S "4084068125545") (= S3-S "2460083378687") (= S3-S "2189063488000")) (= S3-S "")))
(set-info :base-constraint-type |constraints, guarding filling of calculations|)
(assert B93-F)
(set-info :base-constraint-type |constraints from validation-rules|)
(assert (not (and B79-F B78-F (distinct I78 0) (distinct I79 (div (* I78 15) 100)))))
(assert (not (and B76-F (or (< I76-y 2025) (> I76-y 2025)))))
(assert (not (and (or B97-F B96-F) (not (and B97-F B96-F)))))
(assert (not (and (not B80-F) (not B81-F) (not B82-F) (not B83-F) (not B84-F) (not B85-F) (not B86-F) (not B87-F) (not B88-F) (not B89-F) (not B90-F) (not B91-F) (not B92-F) (not B93-F))))
(assert (not (distinct I74 (+ I18 I20 I28 I30 I34 I40 I42 I51 I59 I63 I65 I68 I72 (- 999999999244)))))
(assert (not (distinct I75 (+ I14 I19 I21 I29 I41 I43 I52 I57 I60 I66 I69 I73 93360416512))))
(assert (not (and B8-F (or (< I8-y 2025) (> I8-y 2025)))))
(assert (not (or (> I13-y I12-y) (and (= I13-y I12-y) (> I13-m I12-m)) (and (= I13-y I12-y) (= I13-m I12-m) (> I13-d I12-d)))))
(assert (not (or (distinct I12-y (ite B8-F I8-y 0)) (distinct I12-m (str.to_int (ite B9-F S9-S ""))))))
(assert (not (>= (ite (and (>= (str.to_int S11-S) 1) (<= (str.to_int S11-S) 9999)) (+ (- I13-y (str.to_int S11-S)) (ite (or (< (str.to_int S11-S) I13-y) (and (= (str.to_int S11-S) I13-y) (< 5 I13-m)) (and (= (str.to_int S11-S) I13-y) (= 5 I13-m) (< 1 I13-d)) (and (= (str.to_int S11-S) I13-y) (= 5 I13-m) (= 1 I13-d))) (ite (or (< 5 I13-m) (and (= 5 I13-m) (<= 1 I13-d))) 0 (- 1)) (ite (or (> 5 I13-m) (and (= 5 I13-m) (>= 1 I13-d))) 0 1))) 0) 1)))
(assert (not (< I12-y (str.to_int (str.substr S11-S 0 4)))))
(assert (not (> (str.to_int (str.substr S11-S 0 4)) 2025)))
(assert (not (or (and (distinct I17 0) (= I18 0)) (= I20 0))))
(assert (not (> (ite (>= (- I14 (- 5499999999995)) 0) (- I14 (- 5499999999995)) (- (- I14 (- 5499999999995)))) 100)))
(assert (not (or (> (* I18 100) (+ (* I17 15) 100)) (> (* I20 100) (- 14999999999885)))))
(assert (not (and B18-F B19-F (> (ite (>= (- I19 (div (* I18 55) 10)) 0) (- I19 (div (* I18 55) 10)) (- (- I19 (div (* I18 55) 10)))) 100))))
(assert (not (and (or B16-F B17-F B18-F B19-F) (not (and B16-F B17-F B18-F B19-F)))))
(assert (not (> (ite (>= (- I21 (div (* I20 55) 10)) 0) (- I21 (div (* I20 55) 10)) (- (- I21 (div (* I20 55) 10)))) 100)))
(assert (not (and B46-F (not B47-F))))
(assert (not (and B46-F (or (< I46-y I45-y) (and (= I46-y I45-y) (< I46-m I45-m)) (and (= I46-y I45-y) (= I46-m I45-m) (< I46-d I45-d)) (and (= I46-y I45-y) (= I46-m I45-m) (= I46-d I45-d))))))
(assert (not (and B46-F (< I46-y (str.to_int (str.substr S44-S 0 4))))))
(assert (not (and B46-F B47-F (or (< I46-y I47-y) (and (= I46-y I47-y) (< I46-m I47-m)) (and (= I46-y I47-y) (= I46-m I47-m) (< I46-d I47-d))))))
(assert (not (and B46-F (or (< I46-y (ite B8-F I8-y 0)) (and (= I46-y (ite B8-F I8-y 0)) (< I46-m (str.to_int (ite B9-F S9-S ""))))))))
(assert (not (and B47-F (< I47-y 2023))))
(assert (not (distinct I45-y (str.to_int (str.substr S44-S 0 4)))))
(assert (not (or (> I45-y (ite B8-F I8-y 0)) (and (= I45-y (ite B8-F I8-y 0)) (> I45-m (str.to_int (ite B9-F S9-S "")))))))
(assert (not (> (str.to_int (str.substr S44-S 0 4)) 2025)))
(assert (not (or (and (or (< I45-y 2022) (and (= I45-y 2022) (< I45-m 10)) (and (= I45-y 2022) (= I45-m 10) (< I45-d 1))) (< (str.to_int (str.substr S44-S 0 4)) 2025)) (and (or (> I45-y 2022) (and (= I45-y 2022) (> I45-m 10)) (and (= I45-y 2022) (= I45-m 10) (> I45-d 1)) (and (= I45-y 2022) (= I45-m 10) (= I45-d 1))) (or (and (< (str.to_int (str.substr S44-S 0 4)) 2025) (= (str.to_int (str.substr S44-S 0 4)) 2024) (>= (str.to_int (ite B9-F S9-S "")) 5) (<= (str.to_int (ite B9-F S9-S "")) 12)) (and (< (str.to_int (str.substr S44-S 0 4)) 2025) (distinct (str.to_int (str.substr S44-S 0 4)) 2024)))))))
(assert (not (or (and (= I45-y (ite B8-F I8-y 0)) (< I45-m (- (str.to_int (ite B9-F S9-S "")) 4))) (and (distinct I45-y (ite B8-F I8-y 0)) (< I45-y (- (ite B8-F I8-y 0) 1))) (and (distinct I45-y (ite B8-F I8-y 0)) (= I45-y (- (ite B8-F I8-y 0) 1)) (> I45-m 8) (< I45-m (- (+ (str.to_int (ite B9-F S9-S "")) 12) 4))) (and (distinct I45-y (ite B8-F I8-y 0)) (= I45-y (- (ite B8-F I8-y 0) 1)) (<= I45-m 8)))))
(assert (not (or (and (distinct I50 0) (= I51 0)) (and (distinct I58 0) (= I59 0)))))
(assert (not (and B51-F B52-F (> (ite (>= (- I52 (div (* I51 55) 10)) 0) (- I52 (div (* I51 55) 10)) (- (- I52 (div (* I51 55) 10)))) 100))))
(assert (not (and (or B49-F B50-F B51-F B52-F) (not (and B49-F B50-F B51-F B52-F)))))
(assert (not (or (> (* I51 100) (+ (* I50 15) 100)) (> 75600 (+ (* I55 15) 100)) (> (* I59 100) (+ (* I58 15) 100)))))
(assert (not (and B56-F B57-F (> (ite (>= (- I57 4158) 0) (- I57 4158) (- (- I57 4158))) 100))))
(assert (not (and (or B54-F B55-F B56-F B57-F) (not (and B54-F B55-F B56-F B57-F)))))
(assert (not (> (ite (>= (- I60 (div (* I59 55) 10)) 0) (- I60 (div (* I59 55) 10)) (- (- I60 (div (* I59 55) 10)))) 100)))
(assert (not (or (and (distinct I62 0) (= I63 0)) (and (distinct I64 0) (= I65 0)) (and (distinct I67 0) (= I68 0)))))
(assert (not (> (ite (>= (- 93360533363 (div (* I63 55) 10)) 0) (- 93360533363 (div (* I63 55) 10)) (- (- 93360533363 (div (* I63 55) 10)))) 100)))
(assert (not (or (> (* I63 100) (+ (* I62 15) 100)) (> (* I65 100) (+ (* I64 15) 100)) (> (* I68 100) (+ (* I67 15) 100)))))
(assert (not (> (ite (>= (- I66 (div (* I65 55) 10)) 0) (- I66 (div (* I65 55) 10)) (- (- I66 (div (* I65 55) 10)))) 100)))
(assert (not (> (ite (>= (- I69 (div (* I68 55) 10)) 0) (- I69 (div (* I68 55) 10)) (- (- I69 (div (* I68 55) 10)))) 100)))
(assert (not (and B71-F (distinct I71 0) (= I72 0))))
(assert (not (and B72-F B73-F (> (ite (>= (- I73 (div (* I72 55) 10)) 0) (- I73 (div (* I72 55) 10)) (- (- I73 (div (* I72 55) 10)))) 100))))
(assert (not (and B72-F (> (* I72 100) (+ (* I71 15) 100)))))
(assert (not (or (> I61-y (ite B8-F I8-y 0)) (and (> I61-m (str.to_int (ite B9-F S9-S ""))) (= I61-y (ite B8-F I8-y 0))))))
(assert (not (or (> I24-y I23-y) (and (= I24-y I23-y) (> I24-m I23-m)) (and (= I24-y I23-y) (= I24-m I23-m) (> I24-d I23-d)))))
(assert (not (or (distinct I23-y (ite B8-F I8-y 0)) (distinct I23-m (str.to_int (ite B9-F S9-S ""))))))
(assert (not (< I23-y 2025)))
(assert (not (or (and (distinct I27 0) (= I28 0)) (= I30 0) (and (distinct I33 0) (= I34 0)))))
(assert (not (and B28-F B29-F (> (ite (>= (- I29 (div (* I28 55) 10)) 0) (- I29 (div (* I28 55) 10)) (- (- I29 (div (* I28 55) 10)))) 100))))
(assert (not (and (or B26-F B27-F B28-F B29-F) (not (and B26-F B27-F B28-F B29-F)))))
(assert (not (or (> (* I28 100) (+ (* I27 15) 100)) (> (* I30 100) 115) (> (* I34 100) (+ (* I33 15) 100)))))
(assert (not (> (ite (>= (- (- 196535) (div (* I30 55) 10)) 0) (- (- 196535) (div (* I30 55) 10)) (- (- (- 196535) (div (* I30 55) 10)))) 100)))
(assert (not (and B34-F B35-F (> (ite (>= (- 79684 (div (* I34 55) 10)) 0) (- 79684 (div (* I34 55) 10)) (- (- 79684 (div (* I34 55) 10)))) 100))))
(assert (not (and (or B32-F B33-F B34-F B35-F) (not (and B32-F B33-F B34-F B35-F)))))
(assert (not (or (> I22-e-y I23-y) (and (= I22-e-y I23-y) (> I22-e-m I23-m)) (and (= I22-e-y I23-y) (= I22-e-m I23-m) (> I22-e-d I23-d)))))
(assert (not (or (< I22-s-y (- I22-e-y 1)) (and (= I22-s-y (- I22-e-y 1)) (< I22-s-m I22-e-m)) (and (= I22-s-y (- I22-e-y 1)) (= I22-s-m I22-e-m) (< I22-s-d (+ I22-e-d 1))))))
(assert (not (or (> I38-y I37-y) (and (= I38-y I37-y) (> I38-m I37-m)) (and (= I38-y I37-y) (= I38-m I37-m) (> I38-d I37-d)))))
(assert (not (or (distinct I37-y (ite B8-F I8-y 0)) (distinct I37-m (str.to_int (ite B9-F S9-S ""))))))
(assert (not (< I37-y 2025)))
(assert (not (or (and (distinct I39 0) (= I40 0)) (= I42 0))))
(assert (not (> (ite (>= (- I41 (div (* I40 55) 10)) 0) (- I41 (div (* I40 55) 10)) (- (- I41 (div (* I40 55) 10)))) 100)))
(assert (not (or (> (* I40 100) (+ (* I39 15) 100)) (> (* I42 100) (- 14999999999885)))))
(assert (not (> (ite (>= (- I43 (div (* I42 55) 10)) 0) (- I43 (div (* I42 55) 10)) (- (- I43 (div (* I42 55) 10)))) 100)))
(assert (not (or (> I36-e-y I37-y) (and (= I36-e-y I37-y) (> I36-e-m I37-m)) (and (= I36-e-y I37-y) (= I36-e-m I37-m) (> I36-e-d I37-d)))))
(assert (not (or (< I36-s-y (- I36-e-y 1)) (and (= I36-s-y (- I36-e-y 1)) (< I36-s-m I36-e-m)) (and (= I36-s-y (- I36-e-y 1)) (= I36-s-m I36-e-m) (< I36-s-d (+ I36-e-d 1))))))
(assert (not B76-F))
(assert (and B8-F B9-F))
(assert (not (and B8-F B9-F (or (< 2026 I8-y) (and (= 2026 I8-y) (<= 6 (str.to_int S9-S)))))))
(assert (not (and B8-F B9-F (or (< 2027 I8-y) (and (= 2027 I8-y) (<= 6 (str.to_int S9-S)))))))
(assert (not (and B3-F (= S2-S "0"))))
(assert (not (and B3-F (= S3-S S1-S))))
(assert (not (and (or B82-F B81-F B83-F B80-F B84-F B85-F B86-F B92-F B87-F B90-F B91-F B88-F B89-F) (not B93-F))))
(assert (not (and B93-F (or B82-F B81-F B83-F B80-F B84-F B85-F B86-F B92-F B87-F B90-F B91-F B88-F B89-F) (distinct I94 (+ I82 I81 I83 I80 I84 I85 I92 I87 I90 I88 I89 99982679516851)))))
(assert (not (and B93-F (not B82-F) (not B81-F) (not B83-F) (not B80-F) (not B84-F) (not B85-F) (not B86-F) (not B92-F) (not B87-F) (not B90-F) (not B91-F) (not B88-F) (not B89-F))))
(assert (not (and B93-F (distinct I94 (* I74 100)))))
(set-info :major-phase |control constraints|)
(push 1)
(assert B47-F)
(set-info :status sat)
(check-sat)
(push 1)
(assert B10-F)
(set-info :status sat)
(check-sat)
(push 1)
(assert B35-F)
(set-info :status sat)
(check-sat)
(push 1)
(assert B34-F)
(set-info :status sat)
(check-sat)
(push 1)
(assert B9-F)
(set-info :status sat)
(check-sat)
(push 1)
(assert B19-F)
(set-info :status sat)
(check-sat)
(push 1)
(assert B6-F)
(set-info :status sat)
(check-sat)
(push 1)
(assert B57-F)
(set-info :status sat)
(check-sat)
(push 1)
(assert B4-F)
(set-info :status sat)
(check-sat)
(push 1)
(assert B46-F)
(set-info :status sat)
(check-sat)
(push 1)
(assert B5-F)
(set-info :status sat)
(check-sat)
(push 1)
(assert B3-F)
(set-info :status sat)
(check-sat)
(push 1)
(assert B49-F)
(set-info :status sat)
(check-sat)
(push 1)
(assert B56-F)
(set-info :status sat)
(check-sat)
(push 1)
(assert B99-F)
(set-info :status sat)
(check-sat)
(push 1)
(assert B88-F)
(set-info :status sat)
(check-sat)
(push 1)
(assert B89-F)
(set-info :status sat)
(check-sat)
(push 1)
(assert B26-F)
(set-info :status sat)
(check-sat)
(push 1)
(assert B80-F)
(set-info :status sat)
(check-sat)
(push 1)
(assert B32-F)
(set-info :status sat)
(check-sat)
(push 1)
(assert B98-F)
(set-info :status sat)
(check-sat)
(push 1)
(assert B16-F)
(set-info :status sat)
(check-sat)
(push 1)
(assert B100-F)
(set-info :status sat)
(check-sat)
(push 1)
(assert B8-F)
(set-info :status sat)
(check-sat)
(push 1)
(assert B54-F)
(set-info :status sat)
(check-sat)
(push 1)
(assert B76-F)
(set-info :status unsat)
(check-sat)
(pop 1)
(push 1)
(assert B18-F)
(set-info :status sat)
(check-sat)
(push 1)
(assert B51-F)
(set-info :status sat)
(check-sat)
(push 1)
(assert B27-F)
(set-info :status sat)
(check-sat)
(push 1)
(assert B17-F)
(set-info :status sat)
(check-sat)
(push 1)
(assert B79-F)
(set-info :status unsat)
(check-sat)
(pop 1)
(push 1)
(assert B91-F)
(set-info :status sat)
(check-sat)
(push 1)
(assert B78-F)
(set-info :status unsat)
(check-sat)
(pop 1)
(push 1)
(assert B29-F)
(set-info :status sat)
(check-sat)
(push 1)
(assert B28-F)
(set-info :status sat)
(check-sat)
(push 1)
(assert B86-F)
(set-info :status sat)
(check-sat)
(push 1)
(assert B55-F)
(set-info :status sat)
(check-sat)
(push 1)
(assert B92-F)
(set-info :status sat)
(check-sat)
(push 1)
(assert B90-F)
(set-info :status sat)
(check-sat)
(push 1)
(assert B93-F)
(set-info :status sat)
(check-sat)
(push 1)
(assert B85-F)
(set-info :status sat)
(check-sat)
(push 1)
(assert B82-F)
(set-info :status sat)
(check-sat)
(push 1)
(assert B81-F)
(set-info :status sat)
(check-sat)
(push 1)
(assert B71-F)
(set-info :status sat)
(check-sat)
(push 1)
(assert B83-F)
(set-info :status sat)
(check-sat)
(push 1)
(assert B72-F)
(set-info :status sat)
(check-sat)
(push 1)
(assert B33-F)
(set-info :status sat)
(check-sat)
(push 1)
(assert B84-F)
(set-info :status sat)
(check-sat)
(push 1)
(assert B97-F)
(set-info :status sat)
(check-sat)
(push 1)
(assert B96-F)
(set-info :status sat)
(check-sat)
(push 1)
(assert B52-F)
(set-info :status sat)
(check-sat)
(push 1)
(assert B73-F)
(set-info :status sat)
(check-sat)
(push 1)
(assert B50-F)
(set-info :status sat)
(check-sat)
(push 1)
(assert B87-F)
(set-info :status sat)
(check-sat)
(exit)

